(set-info :source  loris-7.ddns.comp.nus.edu.sg/~project/hip/) 
;Variables declarations
(declare-fun v_bool_399_2621_primed () Int)
(declare-fun v_bool_397_3171_primed () Int)
(declare-fun flted_13_14914 () Int)
(declare-fun n () Int)
(declare-fun bh () Int)
(declare-fun v_bool_395_3172_primed () Int)
(declare-fun cl () Int)
(declare-fun a () Int)
(declare-fun x () Int)
(declare-fun a_primed () Int)
(declare-fun v_14915 () Int)
(declare-fun v_node_408_15415 () Int)
(declare-fun r_14920 () Int)
(declare-fun nr_14921 () Int)
(declare-fun bhr_14923 () Int)
(declare-fun Anon_14922 () Int)
(declare-fun n_15402 () Int)
(declare-fun bh_15404 () Int)
(declare-fun cl_15403 () Int)
(declare-fun x_primed () Int)
(declare-fun Anon_14918 () Int)
(declare-fun bhl_14919 () Int)
(declare-fun nl_14917 () Int)
(declare-fun l_14916 () Int)
(declare-fun cl2_15418 () Int)
(declare-fun bh_15416 () Int)
(declare-fun flted_298_15417 () Int)
(declare-fun v_node_408_2358_primed () Int)
;Relations declarations
;Axioms assertions
;Antecedent
(assert (not (> v_bool_399_2621_primed 0)))
(assert (> r_14920 0))
(assert (> v_bool_397_3171_primed 0))
(assert (= flted_13_14914 0))
(assert (= cl 0))
(assert (= n (+ (+ nr_14921 1) nl_14917)))
(assert (= bhl_14919 bhr_14923))
(assert (= bh (+ bhl_14919 1)))
(assert (> v_bool_395_3172_primed 0))
(assert (> x_primed 0))
(assert (<= cl 1))
(assert (<= 0 cl))
(assert (= a_primed a))
(assert (= x_primed x))
(assert (= a_primed v_14915))
(assert (= v_node_408_15415 r_14920))
(assert (= n_15402 nr_14921))
(assert (= cl_15403 Anon_14922))
(assert (= bh_15404 bhr_14923))
(assert (<= 0 nr_14921))
(assert (<= 1 bhr_14923))
(assert (<= 0 Anon_14922))
(assert (<= Anon_14922 1))
(assert (= (+ flted_298_15417 1) n_15402))
(assert (= cl_15403 1))
(assert (<= 0 cl2_15418))
(assert (<= cl2_15418 1))
(assert (= bh_15416 bh_15404))
(assert (<= 0 n_15402))
(assert (<= 1 bh_15404))
(assert (<= 0 cl_15403))
(assert (<= cl_15403 1))
(assert (= x_primed 1))
(assert (or (and (and (and (= Anon_14918 0) (<= 2 bhl_14919)) (<= 1 nl_14917)) (> l_14916 0)) (or (and (and (and (< l_14916 1) (= nl_14917 0)) (= bhl_14919 1)) (= Anon_14918 0)) (and (and (and (= Anon_14918 1) (<= 1 bhl_14919)) (<= 1 nl_14917)) (> l_14916 0)))))
(assert (or (and (and (and (= cl2_15418 0) (<= 2 bh_15416)) (<= 1 flted_298_15417)) (> v_node_408_2358_primed 0)) (or (and (and (and (< v_node_408_2358_primed 1) (= flted_298_15417 0)) (= bh_15416 1)) (= cl2_15418 0)) (and (and (and (= cl2_15418 1) (<= 1 bh_15416)) (<= 1 flted_298_15417)) (> v_node_408_2358_primed 0)))))
;Negation of Consequence
(assert (not false))
(check-sat)